language Essence 1.3

letting codeWordLength be 44
letting dist be
        function((1, 1) --> 0, (1, 2) --> 15, (1, 3) --> 18, (1, 4) --> 5, (1, 5) --> 13, (1, 6) --> 7, (1, 7) --> 6,
                 (1, 8) --> 6, (1, 9) --> 3, (1, 10) --> 15, (1, 11) --> 21, (1, 12) --> 3, (1, 13) --> 18,
                 (1, 14) --> 14, (1, 15) --> 10, (1, 16) --> 15, (1, 17) --> 10, (1, 18) --> 11, (1, 19) --> 23,
                 (2, 1) --> 15, (2, 2) --> 0, (2, 3) --> 5, (2, 4) --> 3, (2, 5) --> 16, (2, 6) --> 22, (2, 7) --> 18,
                 (2, 8) --> 18, (2, 9) --> 11, (2, 10) --> 19, (2, 11) --> 15, (2, 12) --> 0, (2, 13) --> 10,
                 (2, 14) --> 21, (2, 15) --> 16, (2, 16) --> 0, (2, 17) --> 3, (2, 18) --> 16, (2, 19) --> 18,
                 (3, 1) --> 18, (3, 2) --> 5, (3, 3) --> 0, (3, 4) --> 10, (3, 5) --> 0, (3, 6) --> 4, (3, 7) --> 22,
                 (3, 8) --> 4, (3, 9) --> 23, (3, 10) --> 1, (3, 11) --> 22, (3, 12) --> 13, (3, 13) --> 1,
                 (3, 14) --> 11, (3, 15) --> 20, (3, 16) --> 19, (3, 17) --> 21, (3, 18) --> 17, (3, 19) --> 23,
                 (4, 1) --> 5, (4, 2) --> 3, (4, 3) --> 10, (4, 4) --> 0, (4, 5) --> 15, (4, 6) --> 13, (4, 7) --> 20,
                 (4, 8) --> 4, (4, 9) --> 18, (4, 10) --> 11, (4, 11) --> 10, (4, 12) --> 1, (4, 13) --> 4,
                 (4, 14) --> 5, (4, 15) --> 7, (4, 16) --> 12, (4, 17) --> 5, (4, 18) --> 9, (4, 19) --> 5,
                 (5, 1) --> 13, (5, 2) --> 16, (5, 3) --> 0, (5, 4) --> 15, (5, 5) --> 0, (5, 6) --> 12, (5, 7) --> 16,
                 (5, 8) --> 2, (5, 9) --> 8, (5, 10) --> 14, (5, 11) --> 19, (5, 12) --> 22, (5, 13) --> 15,
                 (5, 14) --> 1, (5, 15) --> 15, (5, 16) --> 7, (5, 17) --> 2, (5, 18) --> 8, (5, 19) --> 17,
                 (6, 1) --> 7, (6, 2) --> 22, (6, 3) --> 4, (6, 4) --> 13, (6, 5) --> 12, (6, 6) --> 0, (6, 7) --> 17,
                 (6, 8) --> 6, (6, 9) --> 17, (6, 10) --> 16, (6, 11) --> 23, (6, 12) --> 2, (6, 13) --> 21,
                 (6, 14) --> 19, (6, 15) --> 10, (6, 16) --> 3, (6, 17) --> 4, (6, 18) --> 6, (6, 19) --> 7,
                 (7, 1) --> 6, (7, 2) --> 18, (7, 3) --> 22, (7, 4) --> 20, (7, 5) --> 16, (7, 6) --> 17, (7, 7) --> 0,
                 (7, 8) --> 16, (7, 9) --> 19, (7, 10) --> 3, (7, 11) --> 9, (7, 12) --> 1, (7, 13) --> 4,
                 (7, 14) --> 7, (7, 15) --> 3, (7, 16) --> 1, (7, 17) --> 3, (7, 18) --> 7, (7, 19) --> 12,
                 (8, 1) --> 6, (8, 2) --> 18, (8, 3) --> 4, (8, 4) --> 4, (8, 5) --> 2, (8, 6) --> 6, (8, 7) --> 16,
                 (8, 8) --> 0, (8, 9) --> 2, (8, 10) --> 20, (8, 11) --> 17, (8, 12) --> 7, (8, 13) --> 14,
                 (8, 14) --> 2, (8, 15) --> 1, (8, 16) --> 16, (8, 17) --> 6, (8, 18) --> 22, (8, 19) --> 5,
                 (9, 1) --> 3, (9, 2) --> 11, (9, 3) --> 23, (9, 4) --> 18, (9, 5) --> 8, (9, 6) --> 17, (9, 7) --> 19,
                 (9, 8) --> 2, (9, 9) --> 0, (9, 10) --> 5, (9, 11) --> 20, (9, 12) --> 21, (9, 13) --> 16,
                 (9, 14) --> 7, (9, 15) --> 8, (9, 16) --> 18, (9, 17) --> 10, (9, 18) --> 2, (9, 19) --> 18,
                 (10, 1) --> 15, (10, 2) --> 19, (10, 3) --> 1, (10, 4) --> 11, (10, 5) --> 14, (10, 6) --> 16,
                 (10, 7) --> 3, (10, 8) --> 20, (10, 9) --> 5, (10, 10) --> 0, (10, 11) --> 17, (10, 12) --> 2,
                 (10, 13) --> 1, (10, 14) --> 16, (10, 15) --> 4, (10, 16) --> 23, (10, 17) --> 19, (10, 18) --> 22,
                 (10, 19) --> 11, (11, 1) --> 21, (11, 2) --> 15, (11, 3) --> 22, (11, 4) --> 10, (11, 5) --> 19,
                 (11, 6) --> 23, (11, 7) --> 9, (11, 8) --> 17, (11, 9) --> 20, (11, 10) --> 17, (11, 11) --> 0,
                 (11, 12) --> 4, (11, 13) --> 7, (11, 14) --> 2, (11, 15) --> 1, (11, 16) --> 23, (11, 17) --> 9,
                 (11, 18) --> 9, (11, 19) --> 7, (12, 1) --> 3, (12, 2) --> 0, (12, 3) --> 13, (12, 4) --> 1,
                 (12, 5) --> 22, (12, 6) --> 2, (12, 7) --> 1, (12, 8) --> 7, (12, 9) --> 21, (12, 10) --> 2,
                 (12, 11) --> 4, (12, 12) --> 0, (12, 13) --> 14, (12, 14) --> 20, (12, 15) --> 9, (12, 16) --> 6,
                 (12, 17) --> 2, (12, 18) --> 10, (12, 19) --> 10, (13, 1) --> 18, (13, 2) --> 10, (13, 3) --> 1,
                 (13, 4) --> 4, (13, 5) --> 15, (13, 6) --> 21, (13, 7) --> 4, (13, 8) --> 14, (13, 9) --> 16,
                 (13, 10) --> 1, (13, 11) --> 7, (13, 12) --> 14, (13, 13) --> 0, (13, 14) --> 12, (13, 15) --> 10,
                 (13, 16) --> 13, (13, 17) --> 23, (13, 18) --> 8, (13, 19) --> 5, (14, 1) --> 14, (14, 2) --> 21,
                 (14, 3) --> 11, (14, 4) --> 5, (14, 5) --> 1, (14, 6) --> 19, (14, 7) --> 7, (14, 8) --> 2,
                 (14, 9) --> 7, (14, 10) --> 16, (14, 11) --> 2, (14, 12) --> 20, (14, 13) --> 12, (14, 14) --> 0,
                 (14, 15) --> 13, (14, 16) --> 13, (14, 17) --> 21, (14, 18) --> 7, (14, 19) --> 21, (15, 1) --> 10,
                 (15, 2) --> 16, (15, 3) --> 20, (15, 4) --> 7, (15, 5) --> 15, (15, 6) --> 10, (15, 7) --> 3,
                 (15, 8) --> 1, (15, 9) --> 8, (15, 10) --> 4, (15, 11) --> 1, (15, 12) --> 9, (15, 13) --> 10,
                 (15, 14) --> 13, (15, 15) --> 0, (15, 16) --> 3, (15, 17) --> 2, (15, 18) --> 5, (15, 19) --> 18,
                 (16, 1) --> 15, (16, 2) --> 0, (16, 3) --> 19, (16, 4) --> 12, (16, 5) --> 7, (16, 6) --> 3,
                 (16, 7) --> 1, (16, 8) --> 16, (16, 9) --> 18, (16, 10) --> 23, (16, 11) --> 23, (16, 12) --> 6,
                 (16, 13) --> 13, (16, 14) --> 13, (16, 15) --> 3, (16, 16) --> 0, (16, 17) --> 15, (16, 18) --> 15,
                 (16, 19) --> 5, (17, 1) --> 10, (17, 2) --> 3, (17, 3) --> 21, (17, 4) --> 5, (17, 5) --> 2,
                 (17, 6) --> 4, (17, 7) --> 3, (17, 8) --> 6, (17, 9) --> 10, (17, 10) --> 19, (17, 11) --> 9,
                 (17, 12) --> 2, (17, 13) --> 23, (17, 14) --> 21, (17, 15) --> 2, (17, 16) --> 15, (17, 17) --> 0,
                 (17, 18) --> 14, (17, 19) --> 10, (18, 1) --> 11, (18, 2) --> 16, (18, 3) --> 17, (18, 4) --> 9,
                 (18, 5) --> 8, (18, 6) --> 6, (18, 7) --> 7, (18, 8) --> 22, (18, 9) --> 2, (18, 10) --> 22,
                 (18, 11) --> 9, (18, 12) --> 10, (18, 13) --> 8, (18, 14) --> 7, (18, 15) --> 5, (18, 16) --> 15,
                 (18, 17) --> 14, (18, 18) --> 0, (18, 19) --> 23, (19, 1) --> 23, (19, 2) --> 18, (19, 3) --> 23,
                 (19, 4) --> 5, (19, 5) --> 17, (19, 6) --> 7, (19, 7) --> 12, (19, 8) --> 5, (19, 9) --> 18,
                 (19, 10) --> 11, (19, 11) --> 7, (19, 12) --> 10, (19, 13) --> 5, (19, 14) --> 21, (19, 15) --> 18,
                 (19, 16) --> 5, (19, 17) --> 10, (19, 18) --> 23, (19, 19) --> 0)
letting maxDist be 48
letting minDist be 257
letting nbCharacter be 19
letting numOfCodeWords be 11
